(set-info :smt-lib-version 2.6)
(set-logic QF_SLIA)
(set-info :source |
Generated by: Denghang Hu
Generated on: 2023-04-14
Application: Evaluate string solvers
Target solver: Ostrich, Z3str3, CVC5
Description: The instance consists of:
(1) a regular membership predicate from the real world
(2) a regular membership predicate to sanitize danger letters in javascript such as <,>,&,",'
(3) a lower bound for string length
|)
(set-info :license "https://creativecommons.org/licenses/by/4.0/")
(set-info :category "industrial")
(set-info :status unknown)
        ;test regex egrep '\<[1-9]\s*:\s*[0-9]{2}\s*[Pp][Mm]\>' file
(declare-const X String)
(assert (str.in_re X (re.++ (str.to_re "e") (re.++ (str.to_re "g") (re.++ (str.to_re "r") (re.++ (str.to_re "e") (re.++ (str.to_re "p") (re.++ (str.to_re " ") (re.++ (str.to_re "\u{27}") (re.++ (str.to_re "<") (re.++ (re.range "1" "9") (re.++ (re.* (re.union (str.to_re " ") (re.union (str.to_re "\u{0b}") (re.union (str.to_re "\u{0a}") (re.union (str.to_re "\u{0d}") (re.union (str.to_re "\u{09}") (str.to_re "\u{0c}"))))))) (re.++ (str.to_re ":") (re.++ (re.* (re.union (str.to_re " ") (re.union (str.to_re "\u{0b}") (re.union (str.to_re "\u{0a}") (re.union (str.to_re "\u{0d}") (re.union (str.to_re "\u{09}") (str.to_re "\u{0c}"))))))) (re.++ ((_ re.loop 2 2) (re.range "0" "9")) (re.++ (re.* (re.union (str.to_re " ") (re.union (str.to_re "\u{0b}") (re.union (str.to_re "\u{0a}") (re.union (str.to_re "\u{0d}") (re.union (str.to_re "\u{09}") (str.to_re "\u{0c}"))))))) (re.++ (re.union (str.to_re "P") (str.to_re "p")) (re.++ (re.union (str.to_re "M") (str.to_re "m")) (re.++ (str.to_re ">") (re.++ (str.to_re "\u{27}") (re.++ (str.to_re " ") (re.++ (str.to_re "f") (re.++ (str.to_re "i") (re.++ (str.to_re "l") (str.to_re "e")))))))))))))))))))))))))
; sanitize danger characters:  < > ' " &
(assert (not (str.in_re X (re.++ re.all (re.union (str.to_re "\u{3c}") (str.to_re "\u{3e}") (str.to_re "\u{27}") (str.to_re "\u{22}") (str.to_re "\u{26}")) re.all))))
(assert (< 20 (str.len X)))
(check-sat)
(exit)
